\ENCODING=ISO-8859-1
\Problem name: 

Minimize
 obj: 5.5 y_0_1 + 4.3 y_0_2 + 6.5 y_0_3 + 12 y_0_4 + 15.3 y_0_5 + 17.5 y_0_6
      + 11.5 y_0_7 + 10.8 y_0_8 + 18 y_0_9 + 19 y_0_10 + 18 y_0_11 + 5.5 y_1_0
      + 2.3 y_1_2 + 5 y_1_3 + 10.8 y_1_4 + 13.4 y_1_5 + 15 y_1_6 + 6.5 y_1_7
      + 5.5 y_1_8 + 12.8 y_1_9 + 17.5 y_1_10 + 13 y_1_11 + 4.3 y_2_0
      + 2.3 y_2_1 + 3.2 y_2_3 + 9.8 y_2_4 + 12 y_2_5 + 14 y_2_6 + 7.3 y_2_7
      + 7 y_2_8 + 13.5 y_2_9 + 14.7 y_2_10 + 15 y_2_11 + 6.5 y_3_0 + 5 y_3_1
      + 3.2 y_3_2 + 6 y_3_4 + 9 y_3_5 + 11.2 y_3_6 + 7 y_3_7 + 8.3 y_3_8
      + 13 y_3_9 + 14.5 y_3_10 + 16.8 y_3_11 + 12 y_4_0 + 10.8 y_4_1
      + 9.8 y_4_2 + 6 y_4_3 + 3.2 y_4_5 + 5.8 y_4_6 + 9.5 y_4_7 + 12 y_4_8
      + 13 y_4_9 + 15 y_4_10 + 20.3 y_4_11 + 15.3 y_5_0 + 13.4 y_5_1 + 12 y_5_2
      + 9 y_5_3 + 3.2 y_5_4 + 2.7 y_5_6 + 10.7 y_5_7 + 13.7 y_5_8 + 12.6 y_5_9
      + 15 y_5_10 + 21.3 y_5_11 + 17.5 y_6_0 + 15 y_6_1 + 14 y_6_2 + 11.2 y_6_3
      + 5.8 y_6_4 + 2.7 y_6_5 + 11.2 y_6_7 + 14.5 y_6_8 + 11.6 y_6_9
      + 14 y_6_10 + 21.3 y_6_11 + 11.5 y_7_0 + 6.5 y_7_1 + 7.3 y_7_2 + 7 y_7_3
      + 9.5 y_7_4 + 10.7 y_7_5 + 11.2 y_7_6 + 3.3 y_7_8 + 6.5 y_7_9
      + 7.5 y_7_10 + 11 y_7_11 + 10.8 y_8_0 + 5.5 y_8_1 + 7 y_8_2 + 8.3 y_8_3
      + 12 y_8_4 + 13.7 y_8_5 + 14.5 y_8_6 + 3.3 y_8_7 + 8 y_8_9 + 8.5 y_8_10
      + 8.5 y_8_11 + 18 y_9_0 + 12.8 y_9_1 + 13.5 y_9_2 + 13 y_9_3 + 13 y_9_4
      + 12.6 y_9_5 + 11.6 y_9_6 + 6.5 y_9_7 + 8 y_9_8 + 2.3 y_9_10 + 11 y_9_11
      + 19 y_10_0 + 17.5 y_10_1 + 14.7 y_10_2 + 14.5 y_10_3 + 15 y_10_4
      + 15 y_10_5 + 14 y_10_6 + 7.5 y_10_7 + 8.5 y_10_8 + 2.3 y_10_9
      + 9.3 y_10_11 + 18 y_11_0 + 13 y_11_1 + 15 y_11_2 + 16.8 y_11_3
      + 20.3 y_11_4 + 21.3 y_11_5 + 21.3 y_11_6 + 11 y_11_7 + 8.5 y_11_8
      + 11 y_11_9 + 9.3 y_11_10
Subject To
 c1:   y_0_0 + y_1_0 + y_2_0 + y_3_0 + y_4_0 + y_5_0 + y_6_0 + y_7_0 + y_8_0
       + y_9_0 + y_10_0 + y_11_0  = 1
 c2:   y_0_1 + y_1_1 + y_2_1 + y_3_1 + y_4_1 + y_5_1 + y_6_1 + y_7_1 + y_8_1
       + y_9_1 + y_10_1 + y_11_1  = 1
 c3:   y_0_2 + y_1_2 + y_2_2 + y_3_2 + y_4_2 + y_5_2 + y_6_2 + y_7_2 + y_8_2
       + y_9_2 + y_10_2 + y_11_2  = 1
 c4:   y_0_3 + y_1_3 + y_2_3 + y_3_3 + y_4_3 + y_5_3 + y_6_3 + y_7_3 + y_8_3
       + y_9_3 + y_10_3 + y_11_3  = 1
 c5:   y_0_4 + y_1_4 + y_2_4 + y_3_4 + y_4_4 + y_5_4 + y_6_4 + y_7_4 + y_8_4
       + y_9_4 + y_10_4 + y_11_4  = 1
 c6:   y_0_5 + y_1_5 + y_2_5 + y_3_5 + y_4_5 + y_5_5 + y_6_5 + y_7_5 + y_8_5
       + y_9_5 + y_10_5 + y_11_5  = 1
 c7:   y_0_6 + y_1_6 + y_2_6 + y_3_6 + y_4_6 + y_5_6 + y_6_6 + y_7_6 + y_8_6
       + y_9_6 + y_10_6 + y_11_6  = 1
 c8:   y_0_7 + y_1_7 + y_2_7 + y_3_7 + y_4_7 + y_5_7 + y_6_7 + y_7_7 + y_8_7
       + y_9_7 + y_10_7 + y_11_7  = 1
 c9:   y_0_8 + y_1_8 + y_2_8 + y_3_8 + y_4_8 + y_5_8 + y_6_8 + y_7_8 + y_8_8
       + y_9_8 + y_10_8 + y_11_8  = 1
 c10:  y_0_9 + y_1_9 + y_2_9 + y_3_9 + y_4_9 + y_5_9 + y_6_9 + y_7_9 + y_8_9
       + y_9_9 + y_10_9 + y_11_9  = 1
 c11:  y_0_10 + y_1_10 + y_2_10 + y_3_10 + y_4_10 + y_5_10 + y_6_10 + y_7_10
       + y_8_10 + y_9_10 + y_10_10 + y_11_10  = 1
 c12:  y_0_11 + y_1_11 + y_2_11 + y_3_11 + y_4_11 + y_5_11 + y_6_11 + y_7_11
       + y_8_11 + y_9_11 + y_10_11 + y_11_11  = 1
 c13:  y_0_0 + y_0_1 + y_0_2 + y_0_3 + y_0_4 + y_0_5 + y_0_6 + y_0_7 + y_0_8
       + y_0_9 + y_0_10 + y_0_11  = 1
 c14:  y_1_0 + y_1_1 + y_1_2 + y_1_3 + y_1_4 + y_1_5 + y_1_6 + y_1_7 + y_1_8
       + y_1_9 + y_1_10 + y_1_11  = 1
 c15:  y_2_0 + y_2_1 + y_2_2 + y_2_3 + y_2_4 + y_2_5 + y_2_6 + y_2_7 + y_2_8
       + y_2_9 + y_2_10 + y_2_11  = 1
 c16:  y_3_0 + y_3_1 + y_3_2 + y_3_3 + y_3_4 + y_3_5 + y_3_6 + y_3_7 + y_3_8
       + y_3_9 + y_3_10 + y_3_11  = 1
 c17:  y_4_0 + y_4_1 + y_4_2 + y_4_3 + y_4_4 + y_4_5 + y_4_6 + y_4_7 + y_4_8
       + y_4_9 + y_4_10 + y_4_11  = 1
 c18:  y_5_0 + y_5_1 + y_5_2 + y_5_3 + y_5_4 + y_5_5 + y_5_6 + y_5_7 + y_5_8
       + y_5_9 + y_5_10 + y_5_11  = 1
 c19:  y_6_0 + y_6_1 + y_6_2 + y_6_3 + y_6_4 + y_6_5 + y_6_6 + y_6_7 + y_6_8
       + y_6_9 + y_6_10 + y_6_11  = 1
 c20:  y_7_0 + y_7_1 + y_7_2 + y_7_3 + y_7_4 + y_7_5 + y_7_6 + y_7_7 + y_7_8
       + y_7_9 + y_7_10 + y_7_11  = 1
 c21:  y_8_0 + y_8_1 + y_8_2 + y_8_3 + y_8_4 + y_8_5 + y_8_6 + y_8_7 + y_8_8
       + y_8_9 + y_8_10 + y_8_11  = 1
 c22:  y_9_0 + y_9_1 + y_9_2 + y_9_3 + y_9_4 + y_9_5 + y_9_6 + y_9_7 + y_9_8
       + y_9_9 + y_9_10 + y_9_11  = 1
 c23:  y_10_0 + y_10_1 + y_10_2 + y_10_3 + y_10_4 + y_10_5 + y_10_6 + y_10_7
       + y_10_8 + y_10_9 + y_10_10 + y_10_11  = 1
 c24:  y_11_0 + y_11_1 + y_11_2 + y_11_3 + y_11_4 + y_11_5 + y_11_6 + y_11_7
       + y_11_8 + y_11_9 + y_11_10 + y_11_11  = 1
 c25:  x_0_1 - 11 y_0_1 <= 0
 c26:  x_0_2 - 11 y_0_2 <= 0
 c27:  x_0_3 - 11 y_0_3 <= 0
 c28:  x_0_4 - 11 y_0_4 <= 0
 c29:  x_0_5 - 11 y_0_5 <= 0
 c30:  x_0_6 - 11 y_0_6 <= 0
 c31:  x_0_7 - 11 y_0_7 <= 0
 c32:  x_0_8 - 11 y_0_8 <= 0
 c33:  x_0_9 - 11 y_0_9 <= 0
 c34:  x_0_10 - 11 y_0_10 <= 0
 c35:  x_0_11 - 11 y_0_11 <= 0
 c36:  x_1_1 - 11 y_1_1 <= 0
 c37:  x_1_2 - 11 y_1_2 <= 0
 c38:  x_1_3 - 11 y_1_3 <= 0
 c39:  x_1_4 - 11 y_1_4 <= 0
 c40:  x_1_5 - 11 y_1_5 <= 0
 c41:  x_1_6 - 11 y_1_6 <= 0
 c42:  x_1_7 - 11 y_1_7 <= 0
 c43:  x_1_8 - 11 y_1_8 <= 0
 c44:  x_1_9 - 11 y_1_9 <= 0
 c45:  x_1_10 - 11 y_1_10 <= 0
 c46:  x_1_11 - 11 y_1_11 <= 0
 c47:  x_2_1 - 11 y_2_1 <= 0
 c48:  x_2_2 - 11 y_2_2 <= 0
 c49:  x_2_3 - 11 y_2_3 <= 0
 c50:  x_2_4 - 11 y_2_4 <= 0
 c51:  x_2_5 - 11 y_2_5 <= 0
 c52:  x_2_6 - 11 y_2_6 <= 0
 c53:  x_2_7 - 11 y_2_7 <= 0
 c54:  x_2_8 - 11 y_2_8 <= 0
 c55:  x_2_9 - 11 y_2_9 <= 0
 c56:  x_2_10 - 11 y_2_10 <= 0
 c57:  x_2_11 - 11 y_2_11 <= 0
 c58:  x_3_1 - 11 y_3_1 <= 0
 c59:  x_3_2 - 11 y_3_2 <= 0
 c60:  x_3_3 - 11 y_3_3 <= 0
 c61:  x_3_4 - 11 y_3_4 <= 0
 c62:  x_3_5 - 11 y_3_5 <= 0
 c63:  x_3_6 - 11 y_3_6 <= 0
 c64:  x_3_7 - 11 y_3_7 <= 0
 c65:  x_3_8 - 11 y_3_8 <= 0
 c66:  x_3_9 - 11 y_3_9 <= 0
 c67:  x_3_10 - 11 y_3_10 <= 0
 c68:  x_3_11 - 11 y_3_11 <= 0
 c69:  x_4_1 - 11 y_4_1 <= 0
 c70:  x_4_2 - 11 y_4_2 <= 0
 c71:  x_4_3 - 11 y_4_3 <= 0
 c72:  x_4_4 - 11 y_4_4 <= 0
 c73:  x_4_5 - 11 y_4_5 <= 0
 c74:  x_4_6 - 11 y_4_6 <= 0
 c75:  x_4_7 - 11 y_4_7 <= 0
 c76:  x_4_8 - 11 y_4_8 <= 0
 c77:  x_4_9 - 11 y_4_9 <= 0
 c78:  x_4_10 - 11 y_4_10 <= 0
 c79:  x_4_11 - 11 y_4_11 <= 0
 c80:  x_5_1 - 11 y_5_1 <= 0
 c81:  x_5_2 - 11 y_5_2 <= 0
 c82:  x_5_3 - 11 y_5_3 <= 0
 c83:  x_5_4 - 11 y_5_4 <= 0
 c84:  x_5_5 - 11 y_5_5 <= 0
 c85:  x_5_6 - 11 y_5_6 <= 0
 c86:  x_5_7 - 11 y_5_7 <= 0
 c87:  x_5_8 - 11 y_5_8 <= 0
 c88:  x_5_9 - 11 y_5_9 <= 0
 c89:  x_5_10 - 11 y_5_10 <= 0
 c90:  x_5_11 - 11 y_5_11 <= 0
 c91:  x_6_1 - 11 y_6_1 <= 0
 c92:  x_6_2 - 11 y_6_2 <= 0
 c93:  x_6_3 - 11 y_6_3 <= 0
 c94:  x_6_4 - 11 y_6_4 <= 0
 c95:  x_6_5 - 11 y_6_5 <= 0
 c96:  x_6_6 - 11 y_6_6 <= 0
 c97:  x_6_7 - 11 y_6_7 <= 0
 c98:  x_6_8 - 11 y_6_8 <= 0
 c99:  x_6_9 - 11 y_6_9 <= 0
 c100: x_6_10 - 11 y_6_10 <= 0
 c101: x_6_11 - 11 y_6_11 <= 0
 c102: x_7_1 - 11 y_7_1 <= 0
 c103: x_7_2 - 11 y_7_2 <= 0
 c104: x_7_3 - 11 y_7_3 <= 0
 c105: x_7_4 - 11 y_7_4 <= 0
 c106: x_7_5 - 11 y_7_5 <= 0
 c107: x_7_6 - 11 y_7_6 <= 0
 c108: x_7_7 - 11 y_7_7 <= 0
 c109: x_7_8 - 11 y_7_8 <= 0
 c110: x_7_9 - 11 y_7_9 <= 0
 c111: x_7_10 - 11 y_7_10 <= 0
 c112: x_7_11 - 11 y_7_11 <= 0
 c113: x_8_1 - 11 y_8_1 <= 0
 c114: x_8_2 - 11 y_8_2 <= 0
 c115: x_8_3 - 11 y_8_3 <= 0
 c116: x_8_4 - 11 y_8_4 <= 0
 c117: x_8_5 - 11 y_8_5 <= 0
 c118: x_8_6 - 11 y_8_6 <= 0
 c119: x_8_7 - 11 y_8_7 <= 0
 c120: x_8_8 - 11 y_8_8 <= 0
 c121: x_8_9 - 11 y_8_9 <= 0
 c122: x_8_10 - 11 y_8_10 <= 0
 c123: x_8_11 - 11 y_8_11 <= 0
 c124: x_9_1 - 11 y_9_1 <= 0
 c125: x_9_2 - 11 y_9_2 <= 0
 c126: x_9_3 - 11 y_9_3 <= 0
 c127: x_9_4 - 11 y_9_4 <= 0
 c128: x_9_5 - 11 y_9_5 <= 0
 c129: x_9_6 - 11 y_9_6 <= 0
 c130: x_9_7 - 11 y_9_7 <= 0
 c131: x_9_8 - 11 y_9_8 <= 0
 c132: x_9_9 - 11 y_9_9 <= 0
 c133: x_9_10 - 11 y_9_10 <= 0
 c134: x_9_11 - 11 y_9_11 <= 0
 c135: x_10_1 - 11 y_10_1 <= 0
 c136: x_10_2 - 11 y_10_2 <= 0
 c137: x_10_3 - 11 y_10_3 <= 0
 c138: x_10_4 - 11 y_10_4 <= 0
 c139: x_10_5 - 11 y_10_5 <= 0
 c140: x_10_6 - 11 y_10_6 <= 0
 c141: x_10_7 - 11 y_10_7 <= 0
 c142: x_10_8 - 11 y_10_8 <= 0
 c143: x_10_9 - 11 y_10_9 <= 0
 c144: x_10_10 - 11 y_10_10 <= 0
 c145: x_10_11 - 11 y_10_11 <= 0
 c146: x_11_1 - 11 y_11_1 <= 0
 c147: x_11_2 - 11 y_11_2 <= 0
 c148: x_11_3 - 11 y_11_3 <= 0
 c149: x_11_4 - 11 y_11_4 <= 0
 c150: x_11_5 - 11 y_11_5 <= 0
 c151: x_11_6 - 11 y_11_6 <= 0
 c152: x_11_7 - 11 y_11_7 <= 0
 c153: x_11_8 - 11 y_11_8 <= 0
 c154: x_11_9 - 11 y_11_9 <= 0
 c155: x_11_10 - 11 y_11_10 <= 0
 c156: x_11_11 - 11 y_11_11 <= 0
 c157: x_0_1 - x_1_1 - x_1_2 - x_1_3 - x_1_4 - x_1_5 - x_1_6 - x_1_7 - x_1_8
       - x_1_9 - x_1_10 - x_1_11 - x_2_1 + x_3_1 + x_4_1 + x_5_1 + x_6_1
       + x_7_1 + x_8_1 + x_9_1 + x_10_1 + x_11_1  = 1
 c158: x_0_2 + x_1_2 - x_2_1 - x_2_2 - x_2_3 - x_2_4 - x_2_5 - x_2_6 - x_2_7
       - x_2_8 - x_2_9 - x_2_10 - x_2_11 - x_3_1 + x_3_2 + x_4_2 + x_5_2
       + x_6_2 + x_7_2 + x_8_2 + x_9_2 + x_10_2 + x_11_2  = 1
 c159: x_0_3 + x_1_3 + x_2_3 - x_3_1 - x_3_2 - x_3_3 - x_3_4 - x_3_5 - x_3_6
       - x_3_7 - x_3_8 - x_3_9 - x_3_10 - x_3_11 - x_4_1 + x_4_3 + x_5_3
       + x_6_3 + x_7_3 + x_8_3 + x_9_3 + x_10_3 + x_11_3  = 1
 c160: x_0_4 + x_1_4 + x_2_4 + x_3_4 - x_4_1 - x_4_2 - x_4_3 - x_4_4 - x_4_5
       - x_4_6 - x_4_7 - x_4_8 - x_4_9 - x_4_10 - x_4_11 - x_5_1 + x_5_4
       + x_6_4 + x_7_4 + x_8_4 + x_9_4 + x_10_4 + x_11_4  = 1
 c161: x_0_5 + x_1_5 + x_2_5 + x_3_5 + x_4_5 - x_5_1 - x_5_2 - x_5_3 - x_5_4
       - x_5_5 - x_5_6 - x_5_7 - x_5_8 - x_5_9 - x_5_10 - x_5_11 - x_6_1
       + x_6_5 + x_7_5 + x_8_5 + x_9_5 + x_10_5 + x_11_5  = 1
 c162: x_0_6 + x_1_6 + x_2_6 + x_3_6 + x_4_6 + x_5_6 - x_6_1 - x_6_2 - x_6_3
       - x_6_4 - x_6_5 - x_6_6 - x_6_7 - x_6_8 - x_6_9 - x_6_10 - x_6_11
       - x_7_1 + x_7_6 + x_8_6 + x_9_6 + x_10_6 + x_11_6  = 1
 c163: x_0_7 + x_1_7 + x_2_7 + x_3_7 + x_4_7 + x_5_7 + x_6_7 - x_7_1 - x_7_2
       - x_7_3 - x_7_4 - x_7_5 - x_7_6 - x_7_7 - x_7_8 - x_7_9 - x_7_10
       - x_7_11 - x_8_1 + x_8_7 + x_9_7 + x_10_7 + x_11_7  = 1
 c164: x_0_8 + x_1_8 + x_2_8 + x_3_8 + x_4_8 + x_5_8 + x_6_8 + x_7_8 - x_8_1
       - x_8_2 - x_8_3 - x_8_4 - x_8_5 - x_8_6 - x_8_7 - x_8_8 - x_8_9 - x_8_10
       - x_8_11 - x_9_1 + x_9_8 + x_10_8 + x_11_8  = 1
 c165: x_0_9 + x_1_9 + x_2_9 + x_3_9 + x_4_9 + x_5_9 + x_6_9 + x_7_9 + x_8_9
       - x_9_1 - x_9_2 - x_9_3 - x_9_4 - x_9_5 - x_9_6 - x_9_7 - x_9_8 - x_9_9
       - x_9_10 - x_9_11 - x_10_1 + x_10_9 + x_11_9  = 1
 c166: x_0_10 + x_1_10 + x_2_10 + x_3_10 + x_4_10 + x_5_10 + x_6_10 + x_7_10
       + x_8_10 + x_9_10 - x_10_1 - x_10_2 - x_10_3 - x_10_4 - x_10_5 - x_10_6
       - x_10_7 - x_10_8 - x_10_9 - x_10_10 - x_10_11 - x_11_1 + x_11_10  = 1
 c167: x_0_11 + x_1_11 + x_2_11 + x_3_11 + x_4_11 + x_5_11 + x_6_11 + x_7_11
       + x_8_11 + x_9_11 + x_10_11 - x_11_1 - x_11_2 - x_11_3 - x_11_4 - x_11_5
       - x_11_6 - x_11_7 - x_11_8 - x_11_9 - x_11_10 - x_11_11 - y_0_0  = 1
Bounds
      x_0_1 >= 0
      x_0_2 >= 0
      x_0_3 >= 0
      x_0_4 >= 0
      x_0_5 >= 0
      x_0_6 >= 0
      x_0_7 >= 0
      x_0_8 >= 0
      x_0_9 >= 0
      x_0_10 >= 0
      x_0_11 >= 0
      x_1_1 >= 0
      x_1_2 >= 0
      x_1_3 >= 0
      x_1_4 >= 0
      x_1_5 >= 0
      x_1_6 >= 0
      x_1_7 >= 0
      x_1_8 >= 0
      x_1_9 >= 0
      x_1_10 >= 0
      x_1_11 >= 0
      x_2_1 >= 0
      x_2_2 >= 0
      x_2_3 >= 0
      x_2_4 >= 0
      x_2_5 >= 0
      x_2_6 >= 0
      x_2_7 >= 0
      x_2_8 >= 0
      x_2_9 >= 0
      x_2_10 >= 0
      x_2_11 >= 0
      x_3_1 >= 0
      x_3_2 >= 0
      x_3_3 >= 0
      x_3_4 >= 0
      x_3_5 >= 0
      x_3_6 >= 0
      x_3_7 >= 0
      x_3_8 >= 0
      x_3_9 >= 0
      x_3_10 >= 0
      x_3_11 >= 0
      x_4_1 >= 0
      x_4_2 >= 0
      x_4_3 >= 0
      x_4_4 >= 0
      x_4_5 >= 0
      x_4_6 >= 0
      x_4_7 >= 0
      x_4_8 >= 0
      x_4_9 >= 0
      x_4_10 >= 0
      x_4_11 >= 0
      x_5_1 >= 0
      x_5_2 >= 0
      x_5_3 >= 0
      x_5_4 >= 0
      x_5_5 >= 0
      x_5_6 >= 0
      x_5_7 >= 0
      x_5_8 >= 0
      x_5_9 >= 0
      x_5_10 >= 0
      x_5_11 >= 0
      x_6_1 >= 0
      x_6_2 >= 0
      x_6_3 >= 0
      x_6_4 >= 0
      x_6_5 >= 0
      x_6_6 >= 0
      x_6_7 >= 0
      x_6_8 >= 0
      x_6_9 >= 0
      x_6_10 >= 0
      x_6_11 >= 0
      x_7_1 >= 0
      x_7_2 >= 0
      x_7_3 >= 0
      x_7_4 >= 0
      x_7_5 >= 0
      x_7_6 >= 0
      x_7_7 >= 0
      x_7_8 >= 0
      x_7_9 >= 0
      x_7_10 >= 0
      x_7_11 >= 0
      x_8_1 >= 0
      x_8_2 >= 0
      x_8_3 >= 0
      x_8_4 >= 0
      x_8_5 >= 0
      x_8_6 >= 0
      x_8_7 >= 0
      x_8_8 >= 0
      x_8_9 >= 0
      x_8_10 >= 0
      x_8_11 >= 0
      x_9_1 >= 0
      x_9_2 >= 0
      x_9_3 >= 0
      x_9_4 >= 0
      x_9_5 >= 0
      x_9_6 >= 0
      x_9_7 >= 0
      x_9_8 >= 0
      x_9_9 >= 0
      x_9_10 >= 0
      x_9_11 >= 0
      x_10_1 >= 0
      x_10_2 >= 0
      x_10_3 >= 0
      x_10_4 >= 0
      x_10_5 >= 0
      x_10_6 >= 0
      x_10_7 >= 0
      x_10_8 >= 0
      x_10_9 >= 0
      x_10_10 >= 0
      x_10_11 >= 0
      x_11_1 >= 0
      x_11_2 >= 0
      x_11_3 >= 0
      x_11_4 >= 0
      x_11_5 >= 0
      x_11_6 >= 0
      x_11_7 >= 0
      x_11_8 >= 0
      x_11_9 >= 0
      x_11_10 >= 0
      x_11_11 >= 0
 0 <= y_0_0 <= 1
 0 <= y_0_1 <= 1
 0 <= y_0_2 <= 1
 0 <= y_0_3 <= 1
 0 <= y_0_4 <= 1
 0 <= y_0_5 <= 1
 0 <= y_0_6 <= 1
 0 <= y_0_7 <= 1
 0 <= y_0_8 <= 1
 0 <= y_0_9 <= 1
 0 <= y_0_10 <= 1
 0 <= y_0_11 <= 1
 0 <= y_1_0 <= 1
 0 <= y_1_1 <= 1
 0 <= y_1_2 <= 1
 0 <= y_1_3 <= 1
 0 <= y_1_4 <= 1
 0 <= y_1_5 <= 1
 0 <= y_1_6 <= 1
 0 <= y_1_7 <= 1
 0 <= y_1_8 <= 1
 0 <= y_1_9 <= 1
 0 <= y_1_10 <= 1
 0 <= y_1_11 <= 1
 0 <= y_2_0 <= 1
 0 <= y_2_1 <= 1
 0 <= y_2_2 <= 1
 0 <= y_2_3 <= 1
 0 <= y_2_4 <= 1
 0 <= y_2_5 <= 1
 0 <= y_2_6 <= 1
 0 <= y_2_7 <= 1
 0 <= y_2_8 <= 1
 0 <= y_2_9 <= 1
 0 <= y_2_10 <= 1
 0 <= y_2_11 <= 1
 0 <= y_3_0 <= 1
 0 <= y_3_1 <= 1
 0 <= y_3_2 <= 1
 0 <= y_3_3 <= 1
 0 <= y_3_4 <= 1
 0 <= y_3_5 <= 1
 0 <= y_3_6 <= 1
 0 <= y_3_7 <= 1
 0 <= y_3_8 <= 1
 0 <= y_3_9 <= 1
 0 <= y_3_10 <= 1
 0 <= y_3_11 <= 1
 0 <= y_4_0 <= 1
 0 <= y_4_1 <= 1
 0 <= y_4_2 <= 1
 0 <= y_4_3 <= 1
 0 <= y_4_4 <= 1
 0 <= y_4_5 <= 1
 0 <= y_4_6 <= 1
 0 <= y_4_7 <= 1
 0 <= y_4_8 <= 1
 0 <= y_4_9 <= 1
 0 <= y_4_10 <= 1
 0 <= y_4_11 <= 1
 0 <= y_5_0 <= 1
 0 <= y_5_1 <= 1
 0 <= y_5_2 <= 1
 0 <= y_5_3 <= 1
 0 <= y_5_4 <= 1
 0 <= y_5_5 <= 1
 0 <= y_5_6 <= 1
 0 <= y_5_7 <= 1
 0 <= y_5_8 <= 1
 0 <= y_5_9 <= 1
 0 <= y_5_10 <= 1
 0 <= y_5_11 <= 1
 0 <= y_6_0 <= 1
 0 <= y_6_1 <= 1
 0 <= y_6_2 <= 1
 0 <= y_6_3 <= 1
 0 <= y_6_4 <= 1
 0 <= y_6_5 <= 1
 0 <= y_6_6 <= 1
 0 <= y_6_7 <= 1
 0 <= y_6_8 <= 1
 0 <= y_6_9 <= 1
 0 <= y_6_10 <= 1
 0 <= y_6_11 <= 1
 0 <= y_7_0 <= 1
 0 <= y_7_1 <= 1
 0 <= y_7_2 <= 1
 0 <= y_7_3 <= 1
 0 <= y_7_4 <= 1
 0 <= y_7_5 <= 1
 0 <= y_7_6 <= 1
 0 <= y_7_7 <= 1
 0 <= y_7_8 <= 1
 0 <= y_7_9 <= 1
 0 <= y_7_10 <= 1
 0 <= y_7_11 <= 1
 0 <= y_8_0 <= 1
 0 <= y_8_1 <= 1
 0 <= y_8_2 <= 1
 0 <= y_8_3 <= 1
 0 <= y_8_4 <= 1
 0 <= y_8_5 <= 1
 0 <= y_8_6 <= 1
 0 <= y_8_7 <= 1
 0 <= y_8_8 <= 1
 0 <= y_8_9 <= 1
 0 <= y_8_10 <= 1
 0 <= y_8_11 <= 1
 0 <= y_9_0 <= 1
 0 <= y_9_1 <= 1
 0 <= y_9_2 <= 1
 0 <= y_9_3 <= 1
 0 <= y_9_4 <= 1
 0 <= y_9_5 <= 1
 0 <= y_9_6 <= 1
 0 <= y_9_7 <= 1
 0 <= y_9_8 <= 1
 0 <= y_9_9 <= 1
 0 <= y_9_10 <= 1
 0 <= y_9_11 <= 1
 0 <= y_10_0 <= 1
 0 <= y_10_1 <= 1
 0 <= y_10_2 <= 1
 0 <= y_10_3 <= 1
 0 <= y_10_4 <= 1
 0 <= y_10_5 <= 1
 0 <= y_10_6 <= 1
 0 <= y_10_7 <= 1
 0 <= y_10_8 <= 1
 0 <= y_10_9 <= 1
 0 <= y_10_10 <= 1
 0 <= y_10_11 <= 1
 0 <= y_11_0 <= 1
 0 <= y_11_1 <= 1
 0 <= y_11_2 <= 1
 0 <= y_11_3 <= 1
 0 <= y_11_4 <= 1
 0 <= y_11_5 <= 1
 0 <= y_11_6 <= 1
 0 <= y_11_7 <= 1
 0 <= y_11_8 <= 1
 0 <= y_11_9 <= 1
 0 <= y_11_10 <= 1
 0 <= y_11_11 <= 1
Binaries
 y_0_0  y_0_1  y_0_2  y_0_3  y_0_4  y_0_5  y_0_6  y_0_7  y_0_8  y_0_9  y_0_10 
 y_0_11  y_1_0  y_1_1  y_1_2  y_1_3  y_1_4  y_1_5  y_1_6  y_1_7  y_1_8  y_1_9 
 y_1_10  y_1_11  y_2_0  y_2_1  y_2_2  y_2_3  y_2_4  y_2_5  y_2_6  y_2_7  y_2_8 
 y_2_9  y_2_10  y_2_11  y_3_0  y_3_1  y_3_2  y_3_3  y_3_4  y_3_5  y_3_6  y_3_7 
 y_3_8  y_3_9  y_3_10  y_3_11  y_4_0  y_4_1  y_4_2  y_4_3  y_4_4  y_4_5  y_4_6 
 y_4_7  y_4_8  y_4_9  y_4_10  y_4_11  y_5_0  y_5_1  y_5_2  y_5_3  y_5_4  y_5_5 
 y_5_6  y_5_7  y_5_8  y_5_9  y_5_10  y_5_11  y_6_0  y_6_1  y_6_2  y_6_3  y_6_4 
 y_6_5  y_6_6  y_6_7  y_6_8  y_6_9  y_6_10  y_6_11  y_7_0  y_7_1  y_7_2  y_7_3 
 y_7_4  y_7_5  y_7_6  y_7_7  y_7_8  y_7_9  y_7_10  y_7_11  y_8_0  y_8_1  y_8_2 
 y_8_3  y_8_4  y_8_5  y_8_6  y_8_7  y_8_8  y_8_9  y_8_10  y_8_11  y_9_0  y_9_1 
 y_9_2  y_9_3  y_9_4  y_9_5  y_9_6  y_9_7  y_9_8  y_9_9  y_9_10  y_9_11 
 y_10_0  y_10_1  y_10_2  y_10_3  y_10_4  y_10_5  y_10_6  y_10_7  y_10_8 
 y_10_9  y_10_10  y_10_11  y_11_0  y_11_1  y_11_2  y_11_3  y_11_4  y_11_5 
 y_11_6  y_11_7  y_11_8  y_11_9  y_11_10  y_11_11 
Generals
 x_0_1  x_0_2  x_0_3  x_0_4  x_0_5  x_0_6  x_0_7  x_0_8  x_0_9  x_0_10  x_0_11 
 x_1_1  x_1_2  x_1_3  x_1_4  x_1_5  x_1_6  x_1_7  x_1_8  x_1_9  x_1_10  x_1_11 
 x_2_1  x_2_2  x_2_3  x_2_4  x_2_5  x_2_6  x_2_7  x_2_8  x_2_9  x_2_10  x_2_11 
 x_3_1  x_3_2  x_3_3  x_3_4  x_3_5  x_3_6  x_3_7  x_3_8  x_3_9  x_3_10  x_3_11 
 x_4_1  x_4_2  x_4_3  x_4_4  x_4_5  x_4_6  x_4_7  x_4_8  x_4_9  x_4_10  x_4_11 
 x_5_1  x_5_2  x_5_3  x_5_4  x_5_5  x_5_6  x_5_7  x_5_8  x_5_9  x_5_10  x_5_11 
 x_6_1  x_6_2  x_6_3  x_6_4  x_6_5  x_6_6  x_6_7  x_6_8  x_6_9  x_6_10  x_6_11 
 x_7_1  x_7_2  x_7_3  x_7_4  x_7_5  x_7_6  x_7_7  x_7_8  x_7_9  x_7_10  x_7_11 
 x_8_1  x_8_2  x_8_3  x_8_4  x_8_5  x_8_6  x_8_7  x_8_8  x_8_9  x_8_10  x_8_11 
 x_9_1  x_9_2  x_9_3  x_9_4  x_9_5  x_9_6  x_9_7  x_9_8  x_9_9  x_9_10  x_9_11 
 x_10_1  x_10_2  x_10_3  x_10_4  x_10_5  x_10_6  x_10_7  x_10_8  x_10_9 
 x_10_10  x_10_11  x_11_1  x_11_2  x_11_3  x_11_4  x_11_5  x_11_6  x_11_7 
 x_11_8  x_11_9  x_11_10  x_11_11 
End
